55770
55, 28, 6, 3, 43, 40, 51, 37, 7, 20, 50, 24, 35, 5, 13, 41, 32, 8, 38, 44, 19, 49, 54, 47, 30, 4, 18, 12, 9, 34, 53, 23, 21, 22, 10, 15, 52, 25, 31, 27, 1, 33, 42, 11, 45, 2, 14, 16, 39, 36, 46, 29, 17, 48, 26
